nN = 8;
nR = 32;
nH = 2;

a = [[24, 16, 22, 24, 16, 25, 18, 23, 20, 22, 24, 25, 25, 23, 24, 25, 19, 22, 15, 22, 19, 24, 18, 15, 16, 19, 21, 18, 20, 17, 19, 24], [16, 15, 22, 18, 16, 19, 23, 23, 15, 18, 17, 23, 19, 16, 18, 17, 21, 25, 17, 23, 16, 16, 18, 15, 21, 20, 23, 22, 18, 22, 24, 22], [18, 25, 21, 21, 25, 17, 22, 15, 24, 17, 19, 20, 25, 16, 23, 20, 19, 20, 24, 22, 15, 20, 24, 22, 18, 24, 23, 19, 16, 16, 16, 22], [24, 16, 18, 18, 18, 21, 17, 18, 23, 16, 17, 15, 22, 17, 25, 15, 20, 17, 18, 16, 17, 18, 25, 20, 17, 24, 22, 22, 18, 24, 21, 24], [24, 15, 19, 22, 16, 17, 15, 24, 23, 25, 15, 15, 17, 24, 21, 18, 17, 20, 18, 15, 23, 18, 20, 20, 21, 23, 22, 22, 23, 17, 24, 23], [24, 15, 16, 18, 24, 24, 23, 15, 23, 23, 18, 22, 24, 25, 21, 25, 18, 24, 19, 22, 25, 16, 17, 24, 18, 25, 17, 15, 24, 19, 21, 23], [20, 19, 16, 23, 25, 23, 22, 15, 15, 17, 17, 19, 23, 15, 23, 21, 17, 16, 18, 18, 16, 20, 19, 16, 18, 23, 25, 19, 16, 20, 15, 18], [24, 25, 25, 17, 18, 20, 18, 19, 23, 16, 25, 16, 19, 20, 16, 18, 18, 16, 20, 21, 15, 17, 23, 25, 16, 20, 23, 19, 16, 18, 20, 19]];
c = [[[0, 0, 0, 0, 0, 0, 0, 0, 0, 0, 0, 0, 0, 0, 0, 0, 0, 0, 0, 0, 0, 0, 0, 0, 0, 0, 0, 0, 0, 0, 0, 0], [38, 49, 44, 46, 39, 35, 50, 38, 30, 46, 44, 40, 46, 34, 31, 47, 45, 38, 46, 47, 34, 38, 38, 37, 49, 34, 33, 46, 32, 36, 49, 37], [48, 47, 39, 40, 38, 42, 42, 32, 37, 30, 35, 41, 47, 40, 44, 46, 31, 50, 40, 33, 43, 49, 33, 36, 41, 41, 47, 32, 43, 48, 35, 48], [31, 38, 38, 47, 42, 30, 41, 41, 47, 31, 39, 41, 44, 40, 46, 30, 45, 30, 38, 42, 48, 35, 33, 46, 36, 31, 43, 30, 44, 49, 44, 44], [36, 42, 34, 50, 45, 48, 36, 49, 31, 41, 39, 50, 34, 33, 50, 37, 30, 48, 42, 34, 32, 44, 50, 46, 49, 41, 46, 33, 46, 39, 37, 38], [30, 36, 39, 48, 43, 36, 37, 42, 33, 41, 45, 38, 44, 31, 31, 32, 41, 50, 50, 41, 49, 37, 31, 48, 36, 43, 39, 38, 32, 32, 46, 41], [35, 46, 42, 42, 50, 40, 38, 43, 50, 32, 50, 31, 48, 46, 31, 33, 47, 40, 40, 36, 48, 32, 32, 43, 41, 31, 50, 41, 46, 46, 48, 37], [42, 40, 47, 30, 47, 50, 40, 42, 48, 35, 31, 34, 44, 46, 50, 35, 31, 45, 48, 45, 40, 40, 35, 45, 46, 34, 37, 30, 47, 39, 37, 50]], [[0, 0, 0, 0, 0, 0, 0, 0, 0, 0, 0, 0, 0, 0, 0, 0, 0, 0, 0, 0, 0, 0, 0, 0, 0, 0, 0, 0, 0, 0, 0, 0], [0, 0, 0, 0, 0, 0, 0, 0, 0, 0, 0, 0, 0, 0, 0, 0, 0, 0, 0, 0, 0, 0, 0, 0, 0, 0, 0, 0, 0, 0, 0, 0], [46, 37, 32, 39, 38, 32, 30, 49, 30, 40, 46, 43, 43, 50, 44, 34, 31, 36, 43, 31, 31, 42, 30, 34, 39, 41, 45, 32, 35, 37, 32, 46], [49, 48, 34, 46, 49, 50, 34, 46, 35, 45, 41, 32, 46, 35, 49, 31, 37, 44, 39, 43, 45, 33, 50, 35, 35, 39, 30, 47, 31, 41, 41, 37], [47, 36, 38, 33, 35, 45, 35, 48, 36, 42, 48, 49, 50, 50, 38, 40, 44, 47, 41, 45, 40, 33, 31, 37, 46, 44, 42, 31, 49, 45, 46, 49], [46, 30, 42, 32, 40, 40, 33, 38, 48, 49, 36, 36, 38, 34, 45, 35, 43, 31, 31, 35, 32, 36, 34, 48, 31, 50, 30, 41, 31, 32, 49, 42], [33, 44, 41, 40, 43, 35, 49, 33, 44, 44, 48, 40, 34, 40, 37, 35, 32, 43, 41, 31, 35, 42, 46, 38, 36, 38, 41, 37, 35, 31, 33, 38], [43, 50, 35, 32, 35, 40, 35, 44, 44, 34, 36, 47, 33, 31, 41, 30, 43, 30, 34, 50, 49, 40, 34, 42, 44, 32, 49, 45, 43, 37, 32, 45]], [[0, 0, 0, 0, 0, 0, 0, 0, 0, 0, 0, 0, 0, 0, 0, 0, 0, 0, 0, 0, 0, 0, 0, 0, 0, 0, 0, 0, 0, 0, 0, 0], [0, 0, 0, 0, 0, 0, 0, 0, 0, 0, 0, 0, 0, 0, 0, 0, 0, 0, 0, 0, 0, 0, 0, 0, 0, 0, 0, 0, 0, 0, 0, 0], [0, 0, 0, 0, 0, 0, 0, 0, 0, 0, 0, 0, 0, 0, 0, 0, 0, 0, 0, 0, 0, 0, 0, 0, 0, 0, 0, 0, 0, 0, 0, 0], [50, 49, 34, 31, 41, 36, 30, 35, 47, 36, 44, 49, 41, 49, 30, 44, 34, 36, 40, 44, 43, 46, 37, 30, 36, 44, 44, 41, 50, 43, 40, 46], [33, 32, 33, 30, 45, 32, 45, 37, 42, 30, 44, 38, 47, 32, 47, 31, 40, 42, 31, 38, 40, 48, 34, 40, 33, 40, 35, 31, 44, 49, 41, 36], [40, 33, 45, 37, 42, 33, 38, 50, 36, 34, 36, 36, 39, 45, 42, 42, 35, 34, 39, 48, 46, 50, 41, 45, 40, 30, 34, 33, 35, 36, 31, 41], [45, 47, 31, 32, 48, 34, 38, 49, 41, 41, 36, 38, 44, 49, 50, 37, 36, 41, 44, 38, 50, 43, 37, 35, 46, 38, 38, 40, 50, 34, 44, 32], [35, 43, 38, 37, 37, 36, 36, 38, 49, 38, 48, 31, 43, 46, 32, 37, 49, 36, 30, 48, 43, 36, 38, 40, 43, 44, 32, 37, 38, 49, 32, 44]], [[0, 0, 0, 0, 0, 0, 0, 0, 0, 0, 0, 0, 0, 0, 0, 0, 0, 0, 0, 0, 0, 0, 0, 0, 0, 0, 0, 0, 0, 0, 0, 0], [0, 0, 0, 0, 0, 0, 0, 0, 0, 0, 0, 0, 0, 0, 0, 0, 0, 0, 0, 0, 0, 0, 0, 0, 0, 0, 0, 0, 0, 0, 0, 0], [0, 0, 0, 0, 0, 0, 0, 0, 0, 0, 0, 0, 0, 0, 0, 0, 0, 0, 0, 0, 0, 0, 0, 0, 0, 0, 0, 0, 0, 0, 0, 0], [0, 0, 0, 0, 0, 0, 0, 0, 0, 0, 0, 0, 0, 0, 0, 0, 0, 0, 0, 0, 0, 0, 0, 0, 0, 0, 0, 0, 0, 0, 0, 0], [32, 36, 46, 50, 48, 44, 34, 43, 36, 36, 49, 47, 33, 43, 30, 35, 32, 42, 46, 36, 48, 46, 39, 46, 32, 30, 40, 49, 47, 37, 30, 46], [38, 47, 48, 44, 34, 35, 34, 41, 30, 50, 35, 48, 49, 48, 41, 40, 33, 47, 50, 35, 42, 41, 50, 48, 36, 41, 46, 50, 49, 31, 40, 31], [39, 37, 45, 46, 40, 49, 47, 44, 38, 35, 30, 49, 37, 43, 42, 34, 42, 31, 33, 46, 45, 30, 48, 46, 36, 50, 33, 35, 46, 40, 49, 39], [32, 40, 35, 44, 35, 41, 48, 35, 37, 48, 34, 50, 43, 49, 32, 45, 40, 50, 43, 48, 32, 47, 44, 42, 40, 44, 42, 44, 40, 40, 46, 45]], [[0, 0, 0, 0, 0, 0, 0, 0, 0, 0, 0, 0, 0, 0, 0, 0, 0, 0, 0, 0, 0, 0, 0, 0, 0, 0, 0, 0, 0, 0, 0, 0], [0, 0, 0, 0, 0, 0, 0, 0, 0, 0, 0, 0, 0, 0, 0, 0, 0, 0, 0, 0, 0, 0, 0, 0, 0, 0, 0, 0, 0, 0, 0, 0], [0, 0, 0, 0, 0, 0, 0, 0, 0, 0, 0, 0, 0, 0, 0, 0, 0, 0, 0, 0, 0, 0, 0, 0, 0, 0, 0, 0, 0, 0, 0, 0], [0, 0, 0, 0, 0, 0, 0, 0, 0, 0, 0, 0, 0, 0, 0, 0, 0, 0, 0, 0, 0, 0, 0, 0, 0, 0, 0, 0, 0, 0, 0, 0], [0, 0, 0, 0, 0, 0, 0, 0, 0, 0, 0, 0, 0, 0, 0, 0, 0, 0, 0, 0, 0, 0, 0, 0, 0, 0, 0, 0, 0, 0, 0, 0], [30, 45, 41, 48, 31, 38, 36, 34, 30, 48, 49, 40, 48, 32, 41, 48, 33, 49, 36, 46, 46, 45, 34, 43, 39, 38, 42, 31, 35, 35, 48, 43], [45, 43, 43, 45, 34, 31, 43, 42, 50, 40, 34, 46, 38, 44, 43, 47, 43, 31, 37, 30, 48, 33, 47, 32, 32, 48, 45, 40, 44, 30, 39, 44], [49, 47, 46, 33, 50, 39, 35, 44, 37, 42, 40, 32, 45, 30, 35, 32, 40, 32, 36, 43, 42, 37, 40, 46, 48, 45, 30, 45, 38, 38, 47, 46]], [[0, 0, 0, 0, 0, 0, 0, 0, 0, 0, 0, 0, 0, 0, 0, 0, 0, 0, 0, 0, 0, 0, 0, 0, 0, 0, 0, 0, 0, 0, 0, 0], [0, 0, 0, 0, 0, 0, 0, 0, 0, 0, 0, 0, 0, 0, 0, 0, 0, 0, 0, 0, 0, 0, 0, 0, 0, 0, 0, 0, 0, 0, 0, 0], [0, 0, 0, 0, 0, 0, 0, 0, 0, 0, 0, 0, 0, 0, 0, 0, 0, 0, 0, 0, 0, 0, 0, 0, 0, 0, 0, 0, 0, 0, 0, 0], [0, 0, 0, 0, 0, 0, 0, 0, 0, 0, 0, 0, 0, 0, 0, 0, 0, 0, 0, 0, 0, 0, 0, 0, 0, 0, 0, 0, 0, 0, 0, 0], [0, 0, 0, 0, 0, 0, 0, 0, 0, 0, 0, 0, 0, 0, 0, 0, 0, 0, 0, 0, 0, 0, 0, 0, 0, 0, 0, 0, 0, 0, 0, 0], [0, 0, 0, 0, 0, 0, 0, 0, 0, 0, 0, 0, 0, 0, 0, 0, 0, 0, 0, 0, 0, 0, 0, 0, 0, 0, 0, 0, 0, 0, 0, 0], [34, 35, 49, 43, 34, 32, 47, 37, 50, 47, 36, 39, 43, 34, 45, 42, 33, 46, 35, 50, 34, 31, 44, 40, 32, 49, 39, 47, 43, 31, 33, 45], [44, 32, 46, 44, 31, 33, 30, 30, 48, 49, 30, 49, 50, 47, 42, 45, 42, 49, 45, 46, 42, 41, 37, 47, 32, 48, 43, 49, 47, 35, 30, 39]], [[0, 0, 0, 0, 0, 0, 0, 0, 0, 0, 0, 0, 0, 0, 0, 0, 0, 0, 0, 0, 0, 0, 0, 0, 0, 0, 0, 0, 0, 0, 0, 0], [0, 0, 0, 0, 0, 0, 0, 0, 0, 0, 0, 0, 0, 0, 0, 0, 0, 0, 0, 0, 0, 0, 0, 0, 0, 0, 0, 0, 0, 0, 0, 0], [0, 0, 0, 0, 0, 0, 0, 0, 0, 0, 0, 0, 0, 0, 0, 0, 0, 0, 0, 0, 0, 0, 0, 0, 0, 0, 0, 0, 0, 0, 0, 0], [0, 0, 0, 0, 0, 0, 0, 0, 0, 0, 0, 0, 0, 0, 0, 0, 0, 0, 0, 0, 0, 0, 0, 0, 0, 0, 0, 0, 0, 0, 0, 0], [0, 0, 0, 0, 0, 0, 0, 0, 0, 0, 0, 0, 0, 0, 0, 0, 0, 0, 0, 0, 0, 0, 0, 0, 0, 0, 0, 0, 0, 0, 0, 0], [0, 0, 0, 0, 0, 0, 0, 0, 0, 0, 0, 0, 0, 0, 0, 0, 0, 0, 0, 0, 0, 0, 0, 0, 0, 0, 0, 0, 0, 0, 0, 0], [0, 0, 0, 0, 0, 0, 0, 0, 0, 0, 0, 0, 0, 0, 0, 0, 0, 0, 0, 0, 0, 0, 0, 0, 0, 0, 0, 0, 0, 0, 0, 0], [36, 30, 46, 31, 37, 36, 30, 33, 33, 45, 46, 43, 44, 34, 33, 33, 50, 43, 44, 39, 43, 49, 46, 44, 50, 41, 47, 50, 49, 44, 43, 49]], [[0, 0, 0, 0, 0, 0, 0, 0, 0, 0, 0, 0, 0, 0, 0, 0, 0, 0, 0, 0, 0, 0, 0, 0, 0, 0, 0, 0, 0, 0, 0, 0], [0, 0, 0, 0, 0, 0, 0, 0, 0, 0, 0, 0, 0, 0, 0, 0, 0, 0, 0, 0, 0, 0, 0, 0, 0, 0, 0, 0, 0, 0, 0, 0], [0, 0, 0, 0, 0, 0, 0, 0, 0, 0, 0, 0, 0, 0, 0, 0, 0, 0, 0, 0, 0, 0, 0, 0, 0, 0, 0, 0, 0, 0, 0, 0], [0, 0, 0, 0, 0, 0, 0, 0, 0, 0, 0, 0, 0, 0, 0, 0, 0, 0, 0, 0, 0, 0, 0, 0, 0, 0, 0, 0, 0, 0, 0, 0], [0, 0, 0, 0, 0, 0, 0, 0, 0, 0, 0, 0, 0, 0, 0, 0, 0, 0, 0, 0, 0, 0, 0, 0, 0, 0, 0, 0, 0, 0, 0, 0], [0, 0, 0, 0, 0, 0, 0, 0, 0, 0, 0, 0, 0, 0, 0, 0, 0, 0, 0, 0, 0, 0, 0, 0, 0, 0, 0, 0, 0, 0, 0, 0], [0, 0, 0, 0, 0, 0, 0, 0, 0, 0, 0, 0, 0, 0, 0, 0, 0, 0, 0, 0, 0, 0, 0, 0, 0, 0, 0, 0, 0, 0, 0, 0], [0, 0, 0, 0, 0, 0, 0, 0, 0, 0, 0, 0, 0, 0, 0, 0, 0, 0, 0, 0, 0, 0, 0, 0, 0, 0, 0, 0, 0, 0, 0, 0]]];

q = [[[5, 116], [15, 110], [18, 107], [19, 115], [13, 120], [21, 121], [9, 106], [25, 116], [10, 105], [17, 122], [23, 109], [13, 117], [18, 106], [8, 106], [12, 119], [19, 115], [12, 105], [10, 124], [6, 115], [10, 115], [25, 117], [18, 121], [10, 124], [19, 124], [9, 122], [19, 125], [24, 113], [22, 118], [10, 111], [19, 123], [22, 116], [18, 109]], [[18, 110], [18, 117], [17, 109], [23, 123], [5, 113], [9, 114], [21, 118], [21, 112], [10, 124], [21, 111], [13, 108], [5, 122], [20, 113], [18, 108], [10, 119], [14, 124], [17, 122], [15, 109], [25, 122], [17, 122], [7, 112], [13, 118], [16, 112], [14, 119], [6, 122], [12, 115], [16, 112], [14, 119], [10, 105], [13, 118], [9, 124], [11, 105]], [[17, 106], [18, 108], [14, 110], [25, 121], [22, 116], [23, 114], [9, 112], [13, 107], [25, 118], [6, 117], [18, 110], [11, 125], [20, 125], [19, 117], [12, 122], [16, 110], [8, 108], [5, 107], [23, 119], [11, 119], [13, 114], [16, 105], [21, 116], [18, 119], [5, 119], [25, 113], [5, 122], [20, 119], [21, 109], [22, 124], [13, 108], [9, 123]], [[19, 109], [21, 115], [18, 114], [17, 109], [14, 105], [23, 121], [12, 108], [22, 120], [20, 108], [19, 116], [15, 119], [23, 116], [8, 124], [23, 116], [20, 108], [5, 117], [20, 121], [15, 109], [22, 115], [11, 123], [8, 105], [20, 109], [8, 114], [23, 121], [7, 116], [23, 119], [16, 110], [11, 108], [23, 125], [5, 117], [20, 121], [24, 123]], [[11, 108], [7, 107], [24, 115], [11, 120], [10, 115], [6, 116], [13, 114], [9, 115], [5, 105], [8, 105], [16, 107], [21, 120], [23, 105], [12, 112], [16, 115], [21, 113], [20, 123], [9, 114], [9, 116], [16, 123], [20, 120], [18, 123], [17, 120], [24, 124], [14, 120], [20, 123], [8, 112], [11, 110], [7, 110], [18, 112], [16, 119], [17, 111]], [[16, 124], [16, 109], [9, 123], [22, 123], [19, 110], [19, 118], [10, 123], [23, 106], [12, 123], [12, 120], [6, 111], [17, 108], [11, 123], [25, 119], [24, 115], [9, 123], [6, 109], [16, 106], [18, 109], [23, 115], [9, 115], [7, 110], [11, 116], [22, 110], [11, 113], [14, 113], [15, 116], [9, 112], [10, 124], [23, 124], [8, 111], [7, 106]], [[7, 111], [21, 125], [22, 122], [16, 107], [24, 115], [21, 125], [8, 122], [15, 105], [15, 111], [16, 107], [11, 115], [11, 125], [6, 107], [5, 108], [24, 121], [18, 105], [13, 111], [13, 108], [24, 122], [6, 110], [19, 118], [5, 105], [7, 109], [23, 105], [7, 114], [12, 122], [6, 118], [6, 114], [17, 108], [17, 123], [5, 114], [9, 115]], [[12, 106], [13, 125], [10, 124], [5, 107], [7, 110], [18, 106], [6, 119], [22, 122], [12, 116], [8, 124], [7, 113], [10, 117], [10, 117], [13, 113], [21, 116], [24, 112], [6, 118], [21, 107], [10, 114], [23, 117], [5, 117], [10, 125], [14, 118], [14, 118], [13, 117], [6, 124], [9, 108], [11, 111], [21, 117], [6, 107], [16, 108], [7, 120]]];
Q = [[49, 370], [45, 371], [50, 369], [53, 369], [45, 368], [45, 369], [42, 365], [39, 370]];
